6 8
3 2 1 18 2 18 2 3 22 4 22 2 7 14 8 14
3 2 1 38 2 38 2 3 40 4 40 2 7 26 8 26
3 2 3 28 4 28 2 5 40 6 40 2 7 18 8 18
3 2 3 28 4 28 2 5 40 6 40 2 7 18 8 18
3 2 1 22 2 22 2 5 32 6 32 2 7 16 8 16
3 2 1 20 2 20 2 5 24 6 24 2 7 20 8 20